Graphene
1.0
        2.4684159756         0.0000000000         0.0000000000
       -1.2342079878         2.1377109420         0.0000000000
        0.0000000000         0.0000000000        10.0000000000
    C
    2
Cartesian
     0.000000000         1.425140670         5.000000000
     1.234208025         0.712570335         5.000000000
