C 
 1.0000000000000000
     4.2754216194000003    0.0000000000000000    0.0000000000000000
     0.0000000000000000    2.4684159756000001    0.0000000000000000
     0.0000000000000000    0.0000000000000000   10.0000000000000000
 C  
   4
Cartesian
  1.4251405820000000  0.0000000000000000  5.0000000000000000
  2.8502811650000002  0.0000000000000000  5.0000000000000000
  0.7125702910000000  1.2342079880000001  5.0000000000000000
  3.5628515190000001  1.2342079880000001  5.0000000000000000
