C 
 1.0000000000000000
     2.4600000381000000    0.0000000000000000    0.0000000000000000
    -1.2300000191000000    2.1304225262999998    0.0000000000000000
     0.0000000000000000    0.0000000000000000   10.0000000000000000
 C  
   4
Cartesian
  1.2299999460000000  0.7101408000000000  3.3250001070000001
  0.0000000000000000  1.4202817270000001  3.3250001070000001
  0.0000000000000000  0.0000000000000000  6.6750001909999996
  1.2299999460000000  0.7101408000000000  6.6750001909999996
