New structure
1.0
        2.4600000381         0.0000000000         0.0000000000
       -1.2300000191         2.1304225263         0.0000000000
        0.0000000000         0.0000000000        10.0000000000
    C
    4
Cartesian
     0.000000000         1.420281727         3.325000107
     1.229999946         0.710140800         3.325000107
     1.229999946         0.710140800         6.675000191
     0.000000000         0.000000000         6.675000191
