C 
 1.0000000000000000
     4.2754216194000003    0.0000000000000000    0.0000000000000000
     0.0000000000000000    2.4684159756000001    0.0000000000000000
     0.0000000000000000    0.0000000000000000   10.0000000000000000
 C  
   8
Cartesian
  1.4251405811290758  0.0000000000000000  3.3250001100000000
  2.8502811665335730  0.0000000000000000  3.3250001100000000
  0.7125702927022486  1.2342079878000001  3.3250001100000000
  3.5628515190917245  1.2342079878000001  3.3250001100000000
  0.0000000000000000  0.0000000000000000  6.6750001900000004
  1.4251405811290758  0.0000000000000000  6.6750001900000004
  2.1377108097000002  1.2342079878000001  6.6750001900000004
  3.5628515190917245  1.2342079878000001  6.6750001900000004
