C 
 1.0000000000000000
    12.8262648582000018    0.0000000000000000    0.0000000000000000
     0.0000000000000000    7.4052479268000004    0.0000000000000000
     0.0000000000000000    0.0000000000000000   10.0000000000000000
 C  
  36
Cartesian
  1.4251405820000000  0.0000000000000000  5.0000000000000000
  2.8502811650000002  0.0000000000000000  5.0000000000000000
  5.7005622014000004  0.0000000000000000  5.0000000000000000
  7.1257027844000005  0.0000000000000000  5.0000000000000000
  9.9759838207999998  0.0000000000000000  5.0000000000000000
 11.4011244038000008  0.0000000000000000  5.0000000000000000
  0.7125702910000000  1.2342079880000001  5.0000000000000000
  3.5628515190000001  1.2342079880000001  5.0000000000000000
  4.9879919103999999  1.2342079880000001  5.0000000000000000
  7.8382731384000000  1.2342079880000001  5.0000000000000000
  9.2634135298000011  1.2342079880000001  5.0000000000000000
 12.1136947578000012  1.2342079880000001  5.0000000000000000
  1.4251405820000000  2.4684159756000001  5.0000000000000000
  2.8502811650000002  2.4684159756000001  5.0000000000000000
  5.7005622014000004  2.4684159756000001  5.0000000000000000
  7.1257027844000005  2.4684159756000001  5.0000000000000000
  9.9759838207999998  2.4684159756000001  5.0000000000000000
 11.4011244038000008  2.4684159756000001  5.0000000000000000
  0.7125702910000000  3.7026239636000002  5.0000000000000000
  3.5628515190000001  3.7026239636000002  5.0000000000000000
  4.9879919103999999  3.7026239636000002  5.0000000000000000
  7.8382731384000000  3.7026239636000002  5.0000000000000000
  9.2634135298000011  3.7026239636000002  5.0000000000000000
 12.1136947578000012  3.7026239636000002  5.0000000000000000
  1.4251405820000000  4.9368319512000003  5.0000000000000000
  2.8502811650000002  4.9368319512000003  5.0000000000000000
  5.7005622014000004  4.9368319512000003  5.0000000000000000
  7.1257027844000005  4.9368319512000003  5.0000000000000000
  9.9759838207999998  4.9368319512000003  5.0000000000000000
 11.4011244038000008  4.9368319512000003  5.0000000000000000
  0.7125702910000000  6.1710399391999999  5.0000000000000000
  3.5628515190000001  6.1710399391999999  5.0000000000000000
  4.9879919103999999  6.1710399391999999  5.0000000000000000
  7.8382731384000000  6.1710399391999999  5.0000000000000000
  9.2634135298000011  6.1710399391999999  5.0000000000000000
 12.1136947578000012  6.1710399391999999  5.0000000000000000
