C 
 1.0000000000000000
     2.4684159756000001    0.0000000000000000    0.0000000000000000
    -1.2342079878000001    2.1377109420000000    0.0000000000000000
     0.0000000000000000    0.0000000000000000   10.0000000000000000
 C  
   2
Cartesian
  1.2342080250000000  0.7125703350000000  5.0000000000000000
  0.0000000000000000  1.4251406700000000  5.0000000000000000
